*SENSE:Maximize
NAME          MODEL
ROWS
 N  OBJ
 L  C0000000
 L  C0000001
 L  C0000002
 L  C0000003
 L  C0000004
 L  C0000005
 L  C0000006
 L  C0000007
 L  C0000008
 L  C0000009
 L  C0000010
 L  C0000011
 L  C0000012
 L  C0000013
 L  C0000014
 L  C0000015
COLUMNS
    MARK      'MARKER'                 'INTORG'
    X0000000  C0000000   1.000000000000e+00
    X0000000  C0000001   1.000000000000e+00
    X0000000  C0000011  -1.000000000000e+00
    X0000000  OBJ        7.117452000000e+06
    MARK      'MARKER'                 'INTEND'
    X0000001  C0000002   1.000000000000e+00
    X0000001  C0000011   1.000000000000e+00
    X0000001  OBJ        8.358185728995e-01
    MARK      'MARKER'                 'INTORG'
    X0000002  C0000000   1.000000000000e+00
    X0000002  C0000003   1.000000000000e+00
    X0000002  OBJ        7.117452000000e+06
    MARK      'MARKER'                 'INTEND'
    X0000003  C0000004   1.000000000000e+00
    X0000003  C0000012   1.000000000000e+00
    X0000003  OBJ        8.358185728995e-01
    MARK      'MARKER'                 'INTORG'
    X0000004  C0000000   1.000000000000e+00
    X0000004  C0000005   1.000000000000e+00
    X0000004  OBJ        7.117452000000e+06
    MARK      'MARKER'                 'INTEND'
    X0000005  C0000006   1.000000000000e+00
    X0000005  C0000013   1.000000000000e+00
    X0000005  OBJ        8.358185728995e-01
    MARK      'MARKER'                 'INTORG'
    X0000006  C0000000   1.000000000000e+00
    X0000006  C0000007   1.000000000000e+00
    X0000006  OBJ        7.117452000000e+06
    MARK      'MARKER'                 'INTEND'
    X0000007  C0000008   1.000000000000e+00
    X0000007  C0000014   1.000000000000e+00
    X0000007  OBJ        8.358185728995e-01
    MARK      'MARKER'                 'INTORG'
    X0000008  C0000000   1.000000000000e+00
    X0000008  C0000009   1.000000000000e+00
    X0000008  OBJ        7.117452000000e+06
    MARK      'MARKER'                 'INTEND'
    X0000009  C0000010   1.000000000000e+00
    X0000009  C0000015   1.000000000000e+00
    X0000009  OBJ        8.358185728995e-01
RHS
    RHS       C0000000   1.000000000000e+00
    RHS       C0000001   1.000000000000e+00
    RHS       C0000002   1.000000000000e+06
    RHS       C0000003   1.000000000000e+00
    RHS       C0000004   1.000000000000e+06
    RHS       C0000005   1.000000000000e+00
    RHS       C0000006   1.000000000000e+06
    RHS       C0000007   1.000000000000e+00
    RHS       C0000008   1.000000000000e+06
    RHS       C0000009   1.000000000000e+00
    RHS       C0000010   1.000000000000e+06
    RHS       C0000011   0.000000000000e+00
    RHS       C0000012   0.000000000000e+00
    RHS       C0000013   0.000000000000e+00
    RHS       C0000014   0.000000000000e+00
    RHS       C0000015   0.000000000000e+00
BOUNDS
 BV BND       X0000000
 UP BND       X0000001   1.000000000000e+00
 FX BND       X0000002   0.000000000000e+00
 FX BND       X0000003   0.000000000000e+00
 FX BND       X0000004   0.000000000000e+00
 FX BND       X0000005   0.000000000000e+00
 FX BND       X0000006   0.000000000000e+00
 FX BND       X0000007   0.000000000000e+00
 FX BND       X0000008   0.000000000000e+00
 FX BND       X0000009   0.000000000000e+00
ENDATA
